c File: instances/14_0.30_2.col
c
c Description: Random graph of size 14 vertices and P(0.3) of edges between any two vertices.
p col 14 91
e 1 4
e 1 7
e 1 10
e 1 13
e 2 4
e 2 5
e 2 8
e 2 12
e 2 14
e 3 5
e 3 14
e 4 6
e 4 7
e 4 10
e 5 7
e 5 9
e 5 10
e 5 12
e 6 9
e 7 9
e 7 11
e 7 14
e 8 10
e 8 11
e 8 14
e 9 11
e 10 14